 8 9
 0 887 1 447 2 234 3 159 4 201 5 555 6 463 7 456 8 753
 0 799 1 779 2 567 3 267 4 478 5 444 6 123 7 789 8  21
 0 999 1 999 2 852 3 483 4 520 5 120 6 456 7 630 8 427
 0 666 1 666 2 140 3 753 4 145 5 142 6 789 7 258 8 520
 0 663 1  25 2 222 3 420 4 699 5 578 6 876 7 741 8 142
 0 333 1 558 2 558 3 159 4 875 5 965 6 543 7  36 8 534
 0 222 1 886 2 965 3  25 4 633 5 412 6 210 7 985 8 157
 0 114 1 541 2 412 3 863 4 222 5  25 6 123 7 214 8 896

